
1140.0
630.0
630.0
1050.0
990.0
630.0
630.0
630.0
630.0
1410.0
630.0
1110.0
630.0
630.0
1140.0
630.0
630.0
630.0
630.0
630.0
630.0
930.0
630.0
960.0
630.0
870.0
900.0
900.0
960.0
630.0
630.0
630.0
630.0
690.0
630.0
1080.0
630.0
630.0
1020.0
1080.0
630.0
630.0
630.0
630.0
630.0
660.0
630.0
1050.0
630.0
630.0